# Solution for model MaxProfit
# Objective value = 2.7205240650454100e+05
x_0,0 0
w_0,0 0
z_0,0_0 0
z_0,0_1 0
z_0,0_2 0
x_0,1 957
w_0,1 0
z_0,1_0 33
z_0,1_1 0
z_0,1_2 0
x_0,2 630
w_0,2 0
z_0,2_0 15
z_0,2_1 6
z_0,2_2 0
x_0,3 290
w_0,3 0
z_0,3_0 0
z_0,3_1 0
z_0,3_2 3
x_0,4 221
w_0,4 0
z_0,4_0 0
z_0,4_1 0
z_0,4_2 4
x_0,5 167
w_0,5 0
z_0,5_0 0
z_0,5_1 0
z_0,5_2 3
x_0,6 274
w_0,6 0
z_0,6_0 0
z_0,6_1 1
z_0,6_2 3
x_0,7 205
w_0,7 0
z_0,7_0 0
z_0,7_1 0
z_0,7_2 3
x_0,8 508
w_0,8 0
z_0,8_0 0
z_0,8_1 17
z_0,8_2 0
x_0,9 131
w_0,9 0
z_0,9_0 0
z_0,9_1 0
z_0,9_2 2
x_0,10 44
w_0,10 0
z_0,10_0 0
z_0,10_1 0
z_0,10_2 1
x_0,11 432
w_0,11 0
z_0,11_0 0
z_0,11_1 0
z_0,11_2 5
x_0,12 79
w_0,12 0
z_0,12_0 0
z_0,12_1 0
z_0,12_2 2
x_0,13 93
w_0,13 0
z_0,13_0 0
z_0,13_1 0
z_0,13_2 2
x_0,14 274
w_0,14 0
z_0,14_0 0
z_0,14_1 0
z_0,14_2 4
x_0,15 69
w_0,15 0
z_0,15_0 0
z_0,15_1 0
z_0,15_2 1
x_0,16 20
w_0,16 0
z_0,16_0 0
z_0,16_1 1
z_0,16_2 0
x_0,17 46
w_0,17 0
z_0,17_0 0
z_0,17_1 0
z_0,17_2 2
x_0,18 67
w_0,18 0
z_0,18_0 0
z_0,18_1 0
z_0,18_2 2
x_0,19 12
w_0,19 0
z_0,19_0 0
z_0,19_1 0
z_0,19_2 1
x_1,0 957
w_1,0 0
z_1,0_0 33
z_1,0_1 0
z_1,0_2 0
x_1,1 0
w_1,1 0
z_1,1_0 0
z_1,1_1 0
z_1,1_2 0
x_1,2 225
w_1,2 0
z_1,2_0 0
z_1,2_1 0
z_1,2_2 2
x_1,3 225
w_1,3 0
z_1,3_0 0
z_1,3_1 0
z_1,3_2 2
x_1,4 112
w_1,4 0
z_1,4_0 0
z_1,4_1 0
z_1,4_2 1
x_1,5 112
w_1,5 0
z_1,5_0 0
z_1,5_1 0
z_1,5_2 1
x_1,6 165
w_1,6 0
z_1,6_0 0
z_1,6_1 1
z_1,6_2 1
x_1,7 112
w_1,7 0
z_1,7_0 0
z_1,7_1 0
z_1,7_2 1
x_1,8 112
w_1,8 0
z_1,8_0 0
z_1,8_1 0
z_1,8_2 1
x_1,9 0
w_1,9 12
z_1,9_0 0
z_1,9_1 0
z_1,9_2 0
x_1,10 0
w_1,10 0
z_1,10_0 0
z_1,10_1 0
z_1,10_2 0
x_1,11 225
w_1,11 0
z_1,11_0 0
z_1,11_1 0
z_1,11_2 2
x_1,12 0
w_1,12 33
z_1,12_0 0
z_1,12_1 0
z_1,12_2 0
x_1,13 0
w_1,13 0
z_1,13_0 0
z_1,13_1 0
z_1,13_2 0
x_1,14 52
w_1,14 0
z_1,14_0 0
z_1,14_1 1
z_1,14_2 0
x_1,15 0
w_1,15 0
z_1,15_0 0
z_1,15_1 0
z_1,15_2 0
x_1,16 0
w_1,16 22
z_1,16_0 0
z_1,16_1 0
z_1,16_2 0
x_1,17 0
w_1,17 32
z_1,17_0 0
z_1,17_1 0
z_1,17_2 0
x_1,18 0
w_1,18 34
z_1,18_0 0
z_1,18_1 0
z_1,18_2 0
x_1,19 0
w_1,19 23
z_1,19_0 0
z_1,19_1 0
z_1,19_2 0
x_2,0 630
w_2,0 0
z_2,0_0 15
z_2,0_1 6
z_2,0_2 0
x_2,1 225
w_2,1 0
z_2,1_0 0
z_2,1_1 0
z_2,1_2 2
x_2,2 0
w_2,2 0
z_2,2_0 0
z_2,2_1 0
z_2,2_2 0
x_2,3 165
w_2,3 0
z_2,3_0 0
z_2,3_1 1
z_2,3_2 1
x_2,4 0
w_2,4 78
z_2,4_0 0
z_2,4_1 0
z_2,4_2 0
x_2,5 0
w_2,5 42
z_2,5_0 0
z_2,5_1 0
z_2,5_2 0
x_2,6 112
w_2,6 0
z_2,6_0 0
z_2,6_1 0
z_2,6_2 1
x_2,7 0
w_2,7 0
z_2,7_0 0
z_2,7_1 0
z_2,7_2 0
x_2,8 52
w_2,8 0
z_2,8_0 0
z_2,8_1 1
z_2,8_2 0
x_2,9 0
w_2,9 0
z_2,9_0 0
z_2,9_1 0
z_2,9_2 0
x_2,10 0
w_2,10 23
z_2,10_0 0
z_2,10_1 0
z_2,10_2 0
x_2,11 225
w_2,11 0
z_2,11_0 0
z_2,11_1 0
z_2,11_2 2
x_2,12 0
w_2,12 0
z_2,12_0 0
z_2,12_1 0
z_2,12_2 0
x_2,13 0
w_2,13 0
z_2,13_0 0
z_2,13_1 0
z_2,13_2 0
x_2,14 52
w_2,14 0
z_2,14_0 0
z_2,14_1 1
z_2,14_2 0
x_2,15 0
w_2,15 0
z_2,15_0 0
z_2,15_1 0
z_2,15_2 0
x_2,16 0
w_2,16 0
z_2,16_0 0
z_2,16_1 0
z_2,16_2 0
x_2,17 0
w_2,17 0
z_2,17_0 0
z_2,17_1 0
z_2,17_2 0
x_2,18 0
w_2,18 35
z_2,18_0 0
z_2,18_1 0
z_2,18_2 0
x_2,19 0
w_2,19 13
z_2,19_0 0
z_2,19_1 0
z_2,19_2 0
x_3,0 290
w_3,0 0
z_3,0_0 0
z_3,0_1 0
z_3,0_2 3
x_3,1 225
w_3,1 0
z_3,1_0 0
z_3,1_1 0
z_3,1_2 2
x_3,2 165
w_3,2 0
z_3,2_0 0
z_3,2_1 1
z_3,2_2 1
x_3,3 0
w_3,3 0
z_3,3_0 0
z_3,3_1 0
z_3,3_2 0
x_3,4 0
w_3,4 0
z_3,4_0 0
z_3,4_1 0
z_3,4_2 0
x_3,5 0
w_3,5 0
z_3,5_0 0
z_3,5_1 0
z_3,5_2 0
x_3,6 311
w_3,6 0
z_3,6_0 1
z_3,6_1 1
z_3,6_2 2
x_3,7 52
w_3,7 0
z_3,7_0 0
z_3,7_1 1
z_3,7_2 0
x_3,8 0
w_3,8 25
z_3,8_0 0
z_3,8_1 0
z_3,8_2 0
x_3,9 0
w_3,9 0
z_3,9_0 0
z_3,9_1 0
z_3,9_2 0
x_3,10 0
w_3,10 0
z_3,10_0 0
z_3,10_1 0
z_3,10_2 0
x_3,11 277
w_3,11 0
z_3,11_0 0
z_3,11_1 1
z_3,11_2 2
x_3,12 0
w_3,12 0
z_3,12_0 0
z_3,12_1 0
z_3,12_2 0
x_3,13 52
w_3,13 0
z_3,13_0 0
z_3,13_1 1
z_3,13_2 0
x_3,14 52
w_3,14 0
z_3,14_0 0
z_3,14_1 1
z_3,14_2 0
x_3,15 0
w_3,15 0
z_3,15_0 0
z_3,15_1 0
z_3,15_2 0
x_3,16 0
w_3,16 0
z_3,16_0 0
z_3,16_1 0
z_3,16_2 0
x_3,17 0
w_3,17 21
z_3,17_0 0
z_3,17_1 0
z_3,17_2 0
x_3,18 0
w_3,18 0
z_3,18_0 0
z_3,18_1 0
z_3,18_2 0
x_3,19 0
w_3,19 1
z_3,19_0 0
z_3,19_1 0
z_3,19_2 0
x_4,0 221
w_4,0 0
z_4,0_0 0
z_4,0_1 0
z_4,0_2 4
x_4,1 112
w_4,1 0
z_4,1_0 0
z_4,1_1 0
z_4,1_2 1
x_4,2 0
w_4,2 73
z_4,2_0 0
z_4,2_1 0
z_4,2_2 0
x_4,3 0
w_4,3 0
z_4,3_0 0
z_4,3_1 0
z_4,3_2 0
x_4,4 0
w_4,4 0
z_4,4_0 0
z_4,4_1 0
z_4,4_2 0
x_4,5 219
w_4,5 0
z_4,5_0 0
z_4,5_1 0
z_4,5_2 2
x_4,6 0
w_4,6 0
z_4,6_0 0
z_4,6_1 0
z_4,6_2 0
x_4,7 0
w_4,7 0
z_4,7_0 0
z_4,7_1 0
z_4,7_2 0
x_4,8 0
w_4,8 9
z_4,8_0 0
z_4,8_1 0
z_4,8_2 0
x_4,9 0
w_4,9 34
z_4,9_0 0
z_4,9_1 0
z_4,9_2 0
x_4,10 112
w_4,10 0
z_4,10_0 0
z_4,10_1 0
z_4,10_2 1
x_4,11 111
w_4,11 0
z_4,11_0 0
z_4,11_1 0
z_4,11_2 1
x_4,12 0
w_4,12 19
z_4,12_0 0
z_4,12_1 0
z_4,12_2 0
x_4,13 0
w_4,13 29
z_4,13_0 0
z_4,13_1 0
z_4,13_2 0
x_4,14 0
w_4,14 48
z_4,14_0 0
z_4,14_1 0
z_4,14_2 0
x_4,15 0
w_4,15 0
z_4,15_0 0
z_4,15_1 0
z_4,15_2 0
x_4,16 0
w_4,16 0
z_4,16_0 0
z_4,16_1 0
z_4,16_2 0
x_4,17 0
w_4,17 17
z_4,17_0 0
z_4,17_1 0
z_4,17_2 0
x_4,18 0
w_4,18 0
z_4,18_0 0
z_4,18_1 0
z_4,18_2 0
x_4,19 0
w_4,19 0
z_4,19_0 0
z_4,19_1 0
z_4,19_2 0
x_5,0 167
w_5,0 0
z_5,0_0 0
z_5,0_1 0
z_5,0_2 3
x_5,1 112
w_5,1 0
z_5,1_0 0
z_5,1_1 0
z_5,1_2 1
x_5,2 0
w_5,2 42
z_5,2_0 0
z_5,2_1 0
z_5,2_2 0
x_5,3 0
w_5,3 0
z_5,3_0 0
z_5,3_1 0
z_5,3_2 0
x_5,4 219
w_5,4 0
z_5,4_0 0
z_5,4_1 0
z_5,4_2 2
x_5,5 0
w_5,5 0
z_5,5_0 0
z_5,5_1 0
z_5,5_2 0
x_5,6 0
w_5,6 0
z_5,6_0 0
z_5,6_1 0
z_5,6_2 0
x_5,7 112
w_5,7 0
z_5,7_0 0
z_5,7_1 0
z_5,7_2 1
x_5,8 0
w_5,8 50
z_5,8_0 0
z_5,8_1 0
z_5,8_2 0
x_5,9 0
w_5,9 22
z_5,9_0 0
z_5,9_1 0
z_5,9_2 0
x_5,10 0
w_5,10 0
z_5,10_0 0
z_5,10_1 0
z_5,10_2 0
x_5,11 0
w_5,11 11
z_5,11_0 0
z_5,11_1 0
z_5,11_2 0
x_5,12 0
w_5,12 9
z_5,12_0 0
z_5,12_1 0
z_5,12_2 0
x_5,13 0
w_5,13 10
z_5,13_0 0
z_5,13_1 0
z_5,13_2 0
x_5,14 0
w_5,14 17
z_5,14_0 0
z_5,14_1 0
z_5,14_2 0
x_5,15 0
w_5,15 0
z_5,15_0 0
z_5,15_1 0
z_5,15_2 0
x_5,16 0
w_5,16 0
z_5,16_0 0
z_5,16_1 0
z_5,16_2 0
x_5,17 0
w_5,17 9
z_5,17_0 0
z_5,17_1 0
z_5,17_2 0
x_5,18 52
w_5,18 0
z_5,18_0 0
z_5,18_1 1
z_5,18_2 0
x_5,19 0
w_5,19 0
z_5,19_0 0
z_5,19_1 0
z_5,19_2 0
x_6,0 274
w_6,0 0
z_6,0_0 0
z_6,0_1 0
z_6,0_2 3
x_6,1 165
w_6,1 0
z_6,1_0 0
z_6,1_1 1
z_6,1_2 1
x_6,2 112
w_6,2 0
z_6,2_0 0
z_6,2_1 0
z_6,2_2 1
x_6,3 311
w_6,3 0
z_6,3_0 1
z_6,3_1 1
z_6,3_2 2
x_6,4 0
w_6,4 0
z_6,4_0 0
z_6,4_1 0
z_6,4_2 0
x_6,5 0
w_6,5 0
z_6,5_0 0
z_6,5_1 0
z_6,5_2 0
x_6,6 0
w_6,6 0
z_6,6_0 0
z_6,6_1 0
z_6,6_2 0
x_6,7 165
w_6,7 0
z_6,7_0 0
z_6,7_1 1
z_6,7_2 1
x_6,8 0
w_6,8 43
z_6,8_0 0
z_6,8_1 0
z_6,8_2 0
x_6,9 52
w_6,9 0
z_6,9_0 0
z_6,9_1 1
z_6,9_2 0
x_6,10 0
w_6,10 0
z_6,10_0 0
z_6,10_1 0
z_6,10_2 0
x_6,11 337
w_6,11 0
z_6,11_0 0
z_6,11_1 0
z_6,11_2 3
x_6,12 0
w_6,12 0
z_6,12_0 0
z_6,12_1 0
z_6,12_2 0
x_6,13 52
w_6,13 0
z_6,13_0 0
z_6,13_1 1
z_6,13_2 0
x_6,14 0
w_6,14 0
z_6,14_0 0
z_6,14_1 0
z_6,14_2 0
x_6,15 0
w_6,15 0
z_6,15_0 0
z_6,15_1 0
z_6,15_2 0
x_6,16 0
w_6,16 0
z_6,16_0 0
z_6,16_1 0
z_6,16_2 0
x_6,17 0
w_6,17 9
z_6,17_0 0
z_6,17_1 0
z_6,17_2 0
x_6,18 0
w_6,18 0
z_6,18_0 0
z_6,18_1 0
z_6,18_2 0
x_6,19 0
w_6,19 11
z_6,19_0 0
z_6,19_1 0
z_6,19_2 0
x_7,0 205
w_7,0 0
z_7,0_0 0
z_7,0_1 0
z_7,0_2 3
x_7,1 112
w_7,1 0
z_7,1_0 0
z_7,1_1 0
z_7,1_2 1
x_7,2 0
w_7,2 0
z_7,2_0 0
z_7,2_1 0
z_7,2_2 0
x_7,3 52
w_7,3 0
z_7,3_0 0
z_7,3_1 1
z_7,3_2 0
x_7,4 0
w_7,4 0
z_7,4_0 0
z_7,4_1 0
z_7,4_2 0
x_7,5 112
w_7,5 0
z_7,5_0 0
z_7,5_1 0
z_7,5_2 1
x_7,6 165
w_7,6 0
z_7,6_0 0
z_7,6_1 1
z_7,6_2 1
x_7,7 0
w_7,7 0
z_7,7_0 0
z_7,7_1 0
z_7,7_2 0
x_7,8 0
w_7,8 37
z_7,8_0 0
z_7,8_1 0
z_7,8_2 0
x_7,9 0
w_7,9 0
z_7,9_0 0
z_7,9_1 0
z_7,9_2 0
x_7,10 0
w_7,10 0
z_7,10_0 0
z_7,10_1 0
z_7,10_2 0
x_7,11 165
w_7,11 0
z_7,11_0 0
z_7,11_1 1
z_7,11_2 1
x_7,12 0
w_7,12 32
z_7,12_0 0
z_7,12_1 0
z_7,12_2 0
x_7,13 0
w_7,13 0
z_7,13_0 0
z_7,13_1 0
z_7,13_2 0
x_7,14 0
w_7,14 34
z_7,14_0 0
z_7,14_1 0
z_7,14_2 0
x_7,15 0
w_7,15 0
z_7,15_0 0
z_7,15_1 0
z_7,15_2 0
x_7,16 0
w_7,16 0
z_7,16_0 0
z_7,16_1 0
z_7,16_2 0
x_7,17 0
w_7,17 24
z_7,17_0 0
z_7,17_1 0
z_7,17_2 0
x_7,18 165
w_7,18 0
z_7,18_0 0
z_7,18_1 1
z_7,18_2 1
x_7,19 0
w_7,19 5
z_7,19_0 0
z_7,19_1 0
z_7,19_2 0
x_8,0 508
w_8,0 0
z_8,0_0 0
z_8,0_1 15
z_8,0_2 1
x_8,1 112
w_8,1 0
z_8,1_0 0
z_8,1_1 0
z_8,1_2 1
x_8,2 52
w_8,2 0
z_8,2_0 0
z_8,2_1 1
z_8,2_2 0
x_8,3 0
w_8,3 23
z_8,3_0 0
z_8,3_1 0
z_8,3_2 0
x_8,4 0
w_8,4 4
z_8,4_0 0
z_8,4_1 0
z_8,4_2 0
x_8,5 0
w_8,5 50
z_8,5_0 0
z_8,5_1 0
z_8,5_2 0
x_8,6 0
w_8,6 72
z_8,6_0 0
z_8,6_1 0
z_8,6_2 0
x_8,7 0
w_8,7 37
z_8,7_0 0
z_8,7_1 0
z_8,7_2 0
x_8,8 0
w_8,8 0
z_8,8_0 0
z_8,8_1 0
z_8,8_2 0
x_8,9 0
w_8,9 16
z_8,9_0 0
z_8,9_1 0
z_8,9_2 0
x_8,10 0
w_8,10 0
z_8,10_0 0
z_8,10_1 0
z_8,10_2 0
x_8,11 0
w_8,11 69
z_8,11_0 0
z_8,11_1 0
z_8,11_2 0
x_8,12 0
w_8,12 42
z_8,12_0 0
z_8,12_1 0
z_8,12_2 0
x_8,13 0
w_8,13 27
z_8,13_0 0
z_8,13_1 0
z_8,13_2 0
x_8,14 157
w_8,14 0
z_8,14_0 0
z_8,14_1 3
z_8,14_2 0
x_8,15 0
w_8,15 13
z_8,15_0 0
z_8,15_1 0
z_8,15_2 0
x_8,16 0
w_8,16 3
z_8,16_0 0
z_8,16_1 0
z_8,16_2 0
x_8,17 0
w_8,17 0
z_8,17_0 0
z_8,17_1 0
z_8,17_2 0
x_8,18 0
w_8,18 35
z_8,18_0 0
z_8,18_1 0
z_8,18_2 0
x_8,19 0
w_8,19 1
z_8,19_0 0
z_8,19_1 0
z_8,19_2 0
x_9,0 131
w_9,0 0
z_9,0_0 0
z_9,0_1 0
z_9,0_2 2
x_9,1 0
w_9,1 0
z_9,1_0 0
z_9,1_1 0
z_9,1_2 0
x_9,2 0
w_9,2 0
z_9,2_0 0
z_9,2_1 0
z_9,2_2 0
x_9,3 52
w_9,3 0
z_9,3_0 0
z_9,3_1 1
z_9,3_2 0
x_9,4 0
w_9,4 34
z_9,4_0 0
z_9,4_1 0
z_9,4_2 0
x_9,5 0
w_9,5 22
z_9,5_0 0
z_9,5_1 0
z_9,5_2 0
x_9,6 0
w_9,6 0
z_9,6_0 0
z_9,6_1 0
z_9,6_2 0
x_9,7 0
w_9,7 0
z_9,7_0 0
z_9,7_1 0
z_9,7_2 0
x_9,8 0
w_9,8 28
z_9,8_0 0
z_9,8_1 0
z_9,8_2 0
x_9,9 0
w_9,9 0
z_9,9_0 0
z_9,9_1 0
z_9,9_2 0
x_9,10 0
w_9,10 1
z_9,10_0 0
z_9,10_1 0
z_9,10_2 0
x_9,11 165
w_9,11 0
z_9,11_0 0
z_9,11_1 1
z_9,11_2 1
x_9,12 165
w_9,12 0
z_9,12_0 0
z_9,12_1 1
z_9,12_2 1
x_9,13 52
w_9,13 0
z_9,13_0 0
z_9,13_1 1
z_9,13_2 0
x_9,14 0
w_9,14 0
z_9,14_0 0
z_9,14_1 0
z_9,14_2 0
x_9,15 0
w_9,15 0
z_9,15_0 0
z_9,15_1 0
z_9,15_2 0
x_9,16 0
w_9,16 0
z_9,16_0 0
z_9,16_1 0
z_9,16_2 0
x_9,17 0
w_9,17 0
z_9,17_0 0
z_9,17_1 0
z_9,17_2 0
x_9,18 0
w_9,18 8
z_9,18_0 0
z_9,18_1 0
z_9,18_2 0
x_9,19 0
w_9,19 1
z_9,19_0 0
z_9,19_1 0
z_9,19_2 0
x_10,0 44
w_10,0 0
z_10,0_0 0
z_10,0_1 0
z_10,0_2 1
x_10,1 0
w_10,1 0
z_10,1_0 0
z_10,1_1 0
z_10,1_2 0
x_10,2 0
w_10,2 23
z_10,2_0 0
z_10,2_1 0
z_10,2_2 0
x_10,3 0
w_10,3 2
z_10,3_0 0
z_10,3_1 0
z_10,3_2 0
x_10,4 112
w_10,4 0
z_10,4_0 0
z_10,4_1 0
z_10,4_2 1
x_10,5 0
w_10,5 0
z_10,5_0 0
z_10,5_1 0
z_10,5_2 0
x_10,6 0
w_10,6 0
z_10,6_0 0
z_10,6_1 0
z_10,6_2 0
x_10,7 0
w_10,7 0
z_10,7_0 0
z_10,7_1 0
z_10,7_2 0
x_10,8 0
w_10,8 0
z_10,8_0 0
z_10,8_1 0
z_10,8_2 0
x_10,9 0
w_10,9 1
z_10,9_0 0
z_10,9_1 0
z_10,9_2 0
x_10,10 0
w_10,10 0
z_10,10_0 0
z_10,10_1 0
z_10,10_2 0
x_10,11 0
w_10,11 18
z_10,11_0 0
z_10,11_1 0
z_10,11_2 0
x_10,12 0
w_10,12 7
z_10,12_0 0
z_10,12_1 0
z_10,12_2 0
x_10,13 0
w_10,13 1
z_10,13_0 0
z_10,13_1 0
z_10,13_2 0
x_10,14 0
w_10,14 8
z_10,14_0 0
z_10,14_1 0
z_10,14_2 0
x_10,15 0
w_10,15 7
z_10,15_0 0
z_10,15_1 0
z_10,15_2 0
x_10,16 0
w_10,16 0
z_10,16_0 0
z_10,16_1 0
z_10,16_2 0
x_10,17 0
w_10,17 1
z_10,17_0 0
z_10,17_1 0
z_10,17_2 0
x_10,18 0
w_10,18 0
z_10,18_0 0
z_10,18_1 0
z_10,18_2 0
x_10,19 0
w_10,19 0
z_10,19_0 0
z_10,19_1 0
z_10,19_2 0
x_11,0 432
w_11,0 0
z_11,0_0 0
z_11,0_1 0
z_11,0_2 5
x_11,1 225
w_11,1 0
z_11,1_0 0
z_11,1_1 0
z_11,1_2 2
x_11,2 225
w_11,2 0
z_11,2_0 0
z_11,2_1 0
z_11,2_2 2
x_11,3 277
w_11,3 0
z_11,3_0 0
z_11,3_1 1
z_11,3_2 2
x_11,4 111
w_11,4 0
z_11,4_0 0
z_11,4_1 0
z_11,4_2 1
x_11,5 0
w_11,5 10
z_11,5_0 0
z_11,5_1 0
z_11,5_2 0
x_11,6 337
w_11,6 0
z_11,6_0 0
z_11,6_1 0
z_11,6_2 3
x_11,7 165
w_11,7 0
z_11,7_0 0
z_11,7_1 1
z_11,7_2 1
x_11,8 0
w_11,8 71
z_11,8_0 0
z_11,8_1 0
z_11,8_2 0
x_11,9 165
w_11,9 0
z_11,9_0 0
z_11,9_1 1
z_11,9_2 1
x_11,10 0
w_11,10 18
z_11,10_0 0
z_11,10_1 0
z_11,10_2 0
x_11,11 0
w_11,11 0
z_11,11_0 0
z_11,11_1 0
z_11,11_2 0
x_11,12 112
w_11,12 0
z_11,12_0 0
z_11,12_1 0
z_11,12_2 1
x_11,13 165
w_11,13 0
z_11,13_0 0
z_11,13_1 1
z_11,13_2 1
x_11,14 0
w_11,14 0
z_11,14_0 0
z_11,14_1 0
z_11,14_2 0
x_11,15 0
w_11,15 0
z_11,15_0 0
z_11,15_1 0
z_11,15_2 0
x_11,16 0
w_11,16 0
z_11,16_0 0
z_11,16_1 0
z_11,16_2 0
x_11,17 0
w_11,17 19
z_11,17_0 0
z_11,17_1 0
z_11,17_2 0
x_11,18 0
w_11,18 0
z_11,18_0 0
z_11,18_1 0
z_11,18_2 0
x_11,19 0
w_11,19 12
z_11,19_0 0
z_11,19_1 0
z_11,19_2 0
x_12,0 79
w_12,0 0
z_12,0_0 0
z_12,0_1 0
z_12,0_2 2
x_12,1 0
w_12,1 33
z_12,1_0 0
z_12,1_1 0
z_12,1_2 0
x_12,2 0
w_12,2 0
z_12,2_0 0
z_12,2_1 0
z_12,2_2 0
x_12,3 0
w_12,3 0
z_12,3_0 0
z_12,3_1 0
z_12,3_2 0
x_12,4 0
w_12,4 19
z_12,4_0 0
z_12,4_1 0
z_12,4_2 0
x_12,5 0
w_12,5 9
z_12,5_0 0
z_12,5_1 0
z_12,5_2 0
x_12,6 0
w_12,6 0
z_12,6_0 0
z_12,6_1 0
z_12,6_2 0
x_12,7 0
w_12,7 32
z_12,7_0 0
z_12,7_1 0
z_12,7_2 0
x_12,8 0
w_12,8 42
z_12,8_0 0
z_12,8_1 0
z_12,8_2 0
x_12,9 165
w_12,9 0
z_12,9_0 0
z_12,9_1 1
z_12,9_2 1
x_12,10 0
w_12,10 7
z_12,10_0 0
z_12,10_1 0
z_12,10_2 0
x_12,11 112
w_12,11 0
z_12,11_0 0
z_12,11_1 0
z_12,11_2 1
x_12,12 0
w_12,12 0
z_12,12_0 0
z_12,12_1 0
z_12,12_2 0
x_12,13 0
w_12,13 0
z_12,13_0 0
z_12,13_1 0
z_12,13_2 0
x_12,14 0
w_12,14 0
z_12,14_0 0
z_12,14_1 0
z_12,14_2 0
x_12,15 0
w_12,15 0
z_12,15_0 0
z_12,15_1 0
z_12,15_2 0
x_12,16 0
w_12,16 0
z_12,16_0 0
z_12,16_1 0
z_12,16_2 0
x_12,17 0
w_12,17 0
z_12,17_0 0
z_12,17_1 0
z_12,17_2 0
x_12,18 0
w_12,18 3
z_12,18_0 0
z_12,18_1 0
z_12,18_2 0
x_12,19 0
w_12,19 1
z_12,19_0 0
z_12,19_1 0
z_12,19_2 0
x_13,0 93
w_13,0 0
z_13,0_0 0
z_13,0_1 0
z_13,0_2 2
x_13,1 0
w_13,1 1
z_13,1_0 0
z_13,1_1 0
z_13,1_2 0
x_13,2 0
w_13,2 0
z_13,2_0 0
z_13,2_1 0
z_13,2_2 0
x_13,3 52
w_13,3 0
z_13,3_0 0
z_13,3_1 1
z_13,3_2 0
x_13,4 0
w_13,4 29
z_13,4_0 0
z_13,4_1 0
z_13,4_2 0
x_13,5 0
w_13,5 11
z_13,5_0 0
z_13,5_1 0
z_13,5_2 0
x_13,6 52
w_13,6 0
z_13,6_0 0
z_13,6_1 1
z_13,6_2 0
x_13,7 0
w_13,7 0
z_13,7_0 0
z_13,7_1 0
z_13,7_2 0
x_13,8 0
w_13,8 27
z_13,8_0 0
z_13,8_1 0
z_13,8_2 0
x_13,9 52
w_13,9 0
z_13,9_0 0
z_13,9_1 1
z_13,9_2 0
x_13,10 0
w_13,10 1
z_13,10_0 0
z_13,10_1 0
z_13,10_2 0
x_13,11 165
w_13,11 0
z_13,11_0 0
z_13,11_1 1
z_13,11_2 1
x_13,12 0
w_13,12 0
z_13,12_0 0
z_13,12_1 0
z_13,12_2 0
x_13,13 0
w_13,13 0
z_13,13_0 0
z_13,13_1 0
z_13,13_2 0
x_13,14 0
w_13,14 30
z_13,14_0 0
z_13,14_1 0
z_13,14_2 0
x_13,15 0
w_13,15 0
z_13,15_0 0
z_13,15_1 0
z_13,15_2 0
x_13,16 0
w_13,16 0
z_13,16_0 0
z_13,16_1 0
z_13,16_2 0
x_13,17 0
w_13,17 21
z_13,17_0 0
z_13,17_1 0
z_13,17_2 0
x_13,18 0
w_13,18 0
z_13,18_0 0
z_13,18_1 0
z_13,18_2 0
x_13,19 0
w_13,19 12
z_13,19_0 0
z_13,19_1 0
z_13,19_2 0
x_14,0 274
w_14,0 0
z_14,0_0 0
z_14,0_1 3
z_14,0_2 3
x_14,1 52
w_14,1 16
z_14,1_0 0
z_14,1_1 1
z_14,1_2 0
x_14,2 52
w_14,2 0
z_14,2_0 0
z_14,2_1 1
z_14,2_2 0
x_14,3 0
w_14,3 0
z_14,3_0 0
z_14,3_1 0
z_14,3_2 0
x_14,4 0
w_14,4 48
z_14,4_0 0
z_14,4_1 0
z_14,4_2 0
x_14,5 0
w_14,5 17
z_14,5_0 0
z_14,5_1 0
z_14,5_2 0
x_14,6 0
w_14,6 24
z_14,6_0 0
z_14,6_1 0
z_14,6_2 0
x_14,7 0
w_14,7 34
z_14,7_0 0
z_14,7_1 0
z_14,7_2 0
x_14,8 165
w_14,8 0
z_14,8_0 0
z_14,8_1 1
z_14,8_2 1
x_14,9 0
w_14,9 0
z_14,9_0 0
z_14,9_1 0
z_14,9_2 0
x_14,10 0
w_14,10 11
z_14,10_0 0
z_14,10_1 0
z_14,10_2 0
x_14,11 0
w_14,11 0
z_14,11_0 0
z_14,11_1 0
z_14,11_2 0
x_14,12 0
w_14,12 0
z_14,12_0 0
z_14,12_1 0
z_14,12_2 0
x_14,13 0
w_14,13 32
z_14,13_0 0
z_14,13_1 0
z_14,13_2 0
x_14,14 0
w_14,14 0
z_14,14_0 0
z_14,14_1 0
z_14,14_2 0
x_14,15 0
w_14,15 13
z_14,15_0 0
z_14,15_1 0
z_14,15_2 0
x_14,16 0
w_14,16 1
z_14,16_0 0
z_14,16_1 0
z_14,16_2 0
x_14,17 0
w_14,17 0
z_14,17_0 0
z_14,17_1 0
z_14,17_2 0
x_14,18 0
w_14,18 24
z_14,18_0 0
z_14,18_1 0
z_14,18_2 0
x_14,19 0
w_14,19 1
z_14,19_0 0
z_14,19_1 0
z_14,19_2 0
x_15,0 69
w_15,0 0
z_15,0_0 0
z_15,0_1 0
z_15,0_2 1
x_15,1 0
w_15,1 0
z_15,1_0 0
z_15,1_1 0
z_15,1_2 0
x_15,2 0
w_15,2 0
z_15,2_0 0
z_15,2_1 0
z_15,2_2 0
x_15,3 0
w_15,3 0
z_15,3_0 0
z_15,3_1 0
z_15,3_2 0
x_15,4 0
w_15,4 0
z_15,4_0 0
z_15,4_1 0
z_15,4_2 0
x_15,5 0
w_15,5 0
z_15,5_0 0
z_15,5_1 0
z_15,5_2 0
x_15,6 0
w_15,6 0
z_15,6_0 0
z_15,6_1 0
z_15,6_2 0
x_15,7 0
w_15,7 0
z_15,7_0 0
z_15,7_1 0
z_15,7_2 0
x_15,8 0
w_15,8 13
z_15,8_0 0
z_15,8_1 0
z_15,8_2 0
x_15,9 0
w_15,9 0
z_15,9_0 0
z_15,9_1 0
z_15,9_2 0
x_15,10 0
w_15,10 7
z_15,10_0 0
z_15,10_1 0
z_15,10_2 0
x_15,11 0
w_15,11 0
z_15,11_0 0
z_15,11_1 0
z_15,11_2 0
x_15,12 0
w_15,12 0
z_15,12_0 0
z_15,12_1 0
z_15,12_2 0
x_15,13 0
w_15,13 0
z_15,13_0 0
z_15,13_1 0
z_15,13_2 0
x_15,14 0
w_15,14 13
z_15,14_0 0
z_15,14_1 0
z_15,14_2 0
x_15,15 0
w_15,15 0
z_15,15_0 0
z_15,15_1 0
z_15,15_2 0
x_15,16 0
w_15,16 0
z_15,16_0 0
z_15,16_1 0
z_15,16_2 0
x_15,17 0
w_15,17 1
z_15,17_0 0
z_15,17_1 0
z_15,17_2 0
x_15,18 0
w_15,18 0
z_15,18_0 0
z_15,18_1 0
z_15,18_2 0
x_15,19 0
w_15,19 9
z_15,19_0 0
z_15,19_1 0
z_15,19_2 0
x_16,0 20
w_16,0 0
z_16,0_0 0
z_16,0_1 1
z_16,0_2 0
x_16,1 0
w_16,1 17
z_16,1_0 0
z_16,1_1 0
z_16,1_2 0
x_16,2 0
w_16,2 5
z_16,2_0 0
z_16,2_1 0
z_16,2_2 0
x_16,3 0
w_16,3 0
z_16,3_0 0
z_16,3_1 0
z_16,3_2 0
x_16,4 0
w_16,4 0
z_16,4_0 0
z_16,4_1 0
z_16,4_2 0
x_16,5 0
w_16,5 0
z_16,5_0 0
z_16,5_1 0
z_16,5_2 0
x_16,6 0
w_16,6 0
z_16,6_0 0
z_16,6_1 0
z_16,6_2 0
x_16,7 0
w_16,7 0
z_16,7_0 0
z_16,7_1 0
z_16,7_2 0
x_16,8 0
w_16,8 3
z_16,8_0 0
z_16,8_1 0
z_16,8_2 0
x_16,9 0
w_16,9 0
z_16,9_0 0
z_16,9_1 0
z_16,9_2 0
x_16,10 0
w_16,10 0
z_16,10_0 0
z_16,10_1 0
z_16,10_2 0
x_16,11 0
w_16,11 0
z_16,11_0 0
z_16,11_1 0
z_16,11_2 0
x_16,12 0
w_16,12 0
z_16,12_0 0
z_16,12_1 0
z_16,12_2 0
x_16,13 0
w_16,13 0
z_16,13_0 0
z_16,13_1 0
z_16,13_2 0
x_16,14 0
w_16,14 1
z_16,14_0 0
z_16,14_1 0
z_16,14_2 0
x_16,15 0
w_16,15 0
z_16,15_0 0
z_16,15_1 0
z_16,15_2 0
x_16,16 0
w_16,16 0
z_16,16_0 0
z_16,16_1 0
z_16,16_2 0
x_16,17 0
w_16,17 1
z_16,17_0 0
z_16,17_1 0
z_16,17_2 0
x_16,18 0
w_16,18 0
z_16,18_0 0
z_16,18_1 0
z_16,18_2 0
x_16,19 0
w_16,19 5
z_16,19_0 0
z_16,19_1 0
z_16,19_2 0
x_17,0 46
w_17,0 0
z_17,0_0 0
z_17,0_1 0
z_17,0_2 2
x_17,1 0
w_17,1 32
z_17,1_0 0
z_17,1_1 0
z_17,1_2 0
x_17,2 0
w_17,2 0
z_17,2_0 0
z_17,2_1 0
z_17,2_2 0
x_17,3 0
w_17,3 21
z_17,3_0 0
z_17,3_1 0
z_17,3_2 0
x_17,4 0
w_17,4 17
z_17,4_0 0
z_17,4_1 0
z_17,4_2 0
x_17,5 0
w_17,5 9
z_17,5_0 0
z_17,5_1 0
z_17,5_2 0
x_17,6 0
w_17,6 9
z_17,6_0 0
z_17,6_1 0
z_17,6_2 0
x_17,7 0
w_17,7 24
z_17,7_0 0
z_17,7_1 0
z_17,7_2 0
x_17,8 0
w_17,8 0
z_17,8_0 0
z_17,8_1 0
z_17,8_2 0
x_17,9 0
w_17,9 0
z_17,9_0 0
z_17,9_1 0
z_17,9_2 0
x_17,10 0
w_17,10 0
z_17,10_0 0
z_17,10_1 0
z_17,10_2 0
x_17,11 0
w_17,11 20
z_17,11_0 0
z_17,11_1 0
z_17,11_2 0
x_17,12 0
w_17,12 0
z_17,12_0 0
z_17,12_1 0
z_17,12_2 0
x_17,13 0
w_17,13 21
z_17,13_0 0
z_17,13_1 0
z_17,13_2 0
x_17,14 0
w_17,14 0
z_17,14_0 0
z_17,14_1 0
z_17,14_2 0
x_17,15 0
w_17,15 1
z_17,15_0 0
z_17,15_1 0
z_17,15_2 0
x_17,16 0
w_17,16 1
z_17,16_0 0
z_17,16_1 0
z_17,16_2 0
x_17,17 0
w_17,17 0
z_17,17_0 0
z_17,17_1 0
z_17,17_2 0
x_17,18 0
w_17,18 19
z_17,18_0 0
z_17,18_1 0
z_17,18_2 0
x_17,19 0
w_17,19 5
z_17,19_0 0
z_17,19_1 0
z_17,19_2 0
x_18,0 67
w_18,0 0
z_18,0_0 0
z_18,0_1 0
z_18,0_2 2
x_18,1 0
w_18,1 34
z_18,1_0 0
z_18,1_1 0
z_18,1_2 0
x_18,2 0
w_18,2 35
z_18,2_0 0
z_18,2_1 0
z_18,2_2 0
x_18,3 0
w_18,3 0
z_18,3_0 0
z_18,3_1 0
z_18,3_2 0
x_18,4 0
w_18,4 0
z_18,4_0 0
z_18,4_1 0
z_18,4_2 0
x_18,5 52
w_18,5 0
z_18,5_0 0
z_18,5_1 1
z_18,5_2 0
x_18,6 0
w_18,6 0
z_18,6_0 0
z_18,6_1 0
z_18,6_2 0
x_18,7 165
w_18,7 0
z_18,7_0 0
z_18,7_1 1
z_18,7_2 1
x_18,8 0
w_18,8 35
z_18,8_0 0
z_18,8_1 0
z_18,8_2 0
x_18,9 0
w_18,9 8
z_18,9_0 0
z_18,9_1 0
z_18,9_2 0
x_18,10 0
w_18,10 0
z_18,10_0 0
z_18,10_1 0
z_18,10_2 0
x_18,11 0
w_18,11 0
z_18,11_0 0
z_18,11_1 0
z_18,11_2 0
x_18,12 0
w_18,12 3
z_18,12_0 0
z_18,12_1 0
z_18,12_2 0
x_18,13 0
w_18,13 0
z_18,13_0 0
z_18,13_1 0
z_18,13_2 0
x_18,14 0
w_18,14 24
z_18,14_0 0
z_18,14_1 0
z_18,14_2 0
x_18,15 0
w_18,15 0
z_18,15_0 0
z_18,15_1 0
z_18,15_2 0
x_18,16 0
w_18,16 0
z_18,16_0 0
z_18,16_1 0
z_18,16_2 0
x_18,17 0
w_18,17 19
z_18,17_0 0
z_18,17_1 0
z_18,17_2 0
x_18,18 0
w_18,18 0
z_18,18_0 0
z_18,18_1 0
z_18,18_2 0
x_18,19 0
w_18,19 0
z_18,19_0 0
z_18,19_1 0
z_18,19_2 0
x_19,0 12
w_19,0 0
z_19,0_0 0
z_19,0_1 0
z_19,0_2 1
x_19,1 0
w_19,1 23
z_19,1_0 0
z_19,1_1 0
z_19,1_2 0
x_19,2 0
w_19,2 13
z_19,2_0 0
z_19,2_1 0
z_19,2_2 0
x_19,3 0
w_19,3 1
z_19,3_0 0
z_19,3_1 0
z_19,3_2 0
x_19,4 0
w_19,4 0
z_19,4_0 0
z_19,4_1 0
z_19,4_2 0
x_19,5 0
w_19,5 0
z_19,5_0 0
z_19,5_1 0
z_19,5_2 0
x_19,6 0
w_19,6 11
z_19,6_0 0
z_19,6_1 0
z_19,6_2 0
x_19,7 0
w_19,7 5
z_19,7_0 0
z_19,7_1 0
z_19,7_2 0
x_19,8 0
w_19,8 1
z_19,8_0 0
z_19,8_1 0
z_19,8_2 0
x_19,9 0
w_19,9 1
z_19,9_0 0
z_19,9_1 0
z_19,9_2 0
x_19,10 0
w_19,10 0
z_19,10_0 0
z_19,10_1 0
z_19,10_2 0
x_19,11 0
w_19,11 12
z_19,11_0 0
z_19,11_1 0
z_19,11_2 0
x_19,12 0
w_19,12 1
z_19,12_0 0
z_19,12_1 0
z_19,12_2 0
x_19,13 0
w_19,13 12
z_19,13_0 0
z_19,13_1 0
z_19,13_2 0
x_19,14 0
w_19,14 1
z_19,14_0 0
z_19,14_1 0
z_19,14_2 0
x_19,15 0
w_19,15 9
z_19,15_0 0
z_19,15_1 0
z_19,15_2 0
x_19,16 0
w_19,16 5
z_19,16_0 0
z_19,16_1 0
z_19,16_2 0
x_19,17 0
w_19,17 5
z_19,17_0 0
z_19,17_1 0
z_19,17_2 0
x_19,18 0
w_19,18 0
z_19,18_0 0
z_19,18_1 0
z_19,18_2 0
x_19,19 0
w_19,19 0
z_19,19_0 0
z_19,19_1 0
z_19,19_2 0
